p cnf 1376 2147
63 -65 -98 101 0
63 -65 -98 -101 0
27 28 -43 102 0
-43 81 89 -102 0
-4 25 41 103 0
-4 25 41 -103 0
2 4 -7 104 0
-7 15 95 -104 0
2 -39 86 -98 0
-61 96 105 106 0
-61 96 105 -106 0
-61 96 -105 106 0
-61 96 -105 -106 0
-28 -32 -36 107 0
-36 63 -87 -107 0
-65 -75 86 87 0
17 -22 -39 108 0
-39 46 -108 109 0
46 51 -109 110 0
51 -56 -110 111 0
-56 66 -111 112 0
66 -87 100 -112 0
3 -5 -10 113 0
-10 14 -113 114 0
14 20 -114 115 0
20 31 -115 116 0
31 40 83 -116 0
-5 9 21 117 0
21 -24 -117 118 0
-24 30 -118 119 0
30 -36 56 -119 0
57 74 -92 120 0
57 74 -92 -120 0
-42 -62 -65 -81 0
-29 -59 -68 -88 0
-2 -6 47 121 0
47 58 -121 122 0
58 -59 -122 123 0
-59 -69 -123 124 0
-69 -72 -124 125 0
-72 75 -125 126 0
75 -83 -85 -126 0
8 -42 57 79 0
12 40 -50 127 0
-50 -58 -127 128 0
-58 -63 -95 -128 0
-33 -86 -88 129 0
-33 -86 -88 -129 0
-25 38 130 131 0
-25 38 130 -131 0
-25 38 -130 131 0
-25 38 -130 -131 0
1 -41 45 132 0
45 -97 -100 -132 0
14 37 42 133 0
14 37 42 -133 0
-49 -89 134 135 0
-49 -89 134 -135 0
-49 -89 -134 135 0
-49 -89 -134 -135 0
-9 -24 29 95 0
19 61 95 136 0
19 61 95 -136 0
13 -19 41 137 0
41 42 -137 138 0
42 -54 -138 139 0
-54 -84 -96 -139 0
-5 9 -24 140 0
-24 38 -140 141 0
38 41 -141 142 0
41 43 75 -142 0
-7 27 47 143 0
47 50 -143 144 0
50 51 -144 145 0
51 -83 85 -145 0
1 -15 37 146 0
1 -15 37 -146 0
24 35 -81 147 0
24 35 -81 -147 0
-8 -40 43 -92 0
3 4 56 148 0
3 4 56 -148 0
13 32 34 149 0
34 36 -149 150 0
36 71 -150 151 0
71 -80 83 -151 0
30 35 -77 152 0
30 35 -77 -152 0
-8 -21 -31 153 0
-8 -21 -31 -153 0
2 59 -68 -80 0
-32 91 154 155 0
-32 91 154 -155 0
-32 91 -154 155 0
-32 91 -154 -155 0
5 6 -41 156 0
-41 50 -156 157 0
50 60 -157 158 0
60 -90 96 -158 0
-17 19 24 159 0
24 -30 86 -159 0
27 -29 -62 160 0
-62 -82 -160 161 0
-82 93 -98 -161 0
9 11 -26 162 0
-26 28 64 -162 0
-34 -56 -66 163 0
-34 -56 -66 -163 0
-29 -52 -67 164 0
-29 -52 -67 -164 0
-11 -24 46 85 0
-2 12 -43 165 0
-43 -45 -165 166 0
-45 -68 -166 167 0
-68 70 -71 -167 0
-9 -13 49 168 0
49 87 -88 -168 0
-30 61 88 97 0
26 82 -85 169 0
26 82 -85 -169 0
72 83 94 97 0
51 -65 69 170 0
69 -80 -85 -170 0
-7 11 13 171 0
13 34 -171 172 0
34 -41 -172 173 0
-41 -50 -173 174 0
-50 -67 -72 -174 0
19 34 90 91 0
-25 36 37 175 0
37 -52 -175 176 0
-52 -55 82 -176 0
14 17 39 177 0
39 -54 -177 178 0
-54 -63 -100 -178 0
14 -35 47 -48 0
-6 -18 -39 179 0
-39 41 -179 180 0
41 42 -180 181 0
42 -44 -181 182 0
-44 46 -182 183 0
46 47 -183 184 0
47 -49 -54 -184 0
13 -34 100 185 0
13 -34 100 -185 0
5 20 -43 186 0
-43 -52 -186 187 0
-52 64 -187 188 0
64 75 -93 -188 0
-27 -77 85 86 0
-20 38 -56 91 0
13 30 -70 189 0
-70 75 92 -189 0
9 -24 -40 190 0
-40 -48 76 -190 0
24 -28 -67 191 0
-67 73 95 -191 0
14 28 -39 192 0
-39 50 -192 193 0
50 -89 -96 -193 0
16 -62 -67 194 0
16 -62 -67 -194 0
4 13 15 195 0
15 20 -195 196 0
20 31 -196 197 0
31 -45 -197 198 0
-45 -48 -198 199 0
-48 58 84 -199 0
-16 24 33 97 0
-20 -51 -60 200 0
-60 71 -200 201 0
71 72 -201 202 0
72 79 -89 -202 0
-11 -43 62 203 0
62 -67 -203 204 0
-67 78 -204 205 0
78 -95 100 -205 0
20 -37 78 82 0
18 -51 -64 206 0
-64 83 -95 -206 0
14 -16 -66 85 0
1 63 73 207 0
73 87 -207 208 0
87 -93 96 -208 0
-14 -52 72 209 0
-14 -52 72 -209 0
34 35 -40 210 0
-40 -54 -210 211 0
-54 62 -64 -211 0
18 46 212 213 0
18 46 212 -213 0
18 46 -212 213 0
18 46 -212 -213 0
-22 26 -58 69 0
-18 41 -56 214 0
-56 -61 -214 215 0
-61 -65 -215 216 0
-65 78 -216 217 0
78 83 -217 218 0
83 -96 100 -218 0
-19 43 -50 219 0
-19 43 -50 -219 0
16 -19 26 220 0
26 61 -220 221 0
61 -71 -82 -221 0
60 62 80 222 0
60 62 80 -222 0
-15 21 46 -77 0
35 85 88 223 0
35 85 88 -223 0
-71 74 -84 224 0
-71 74 -84 -224 0
-5 58 59 90 0
-17 57 63 225 0
63 78 -225 226 0
78 93 100 -226 0
-16 19 -40 -57 0
-30 49 54 227 0
54 63 -75 -227 0
-26 37 39 228 0
39 -60 -228 229 0
-60 -62 -229 230 0
-62 71 -230 231 0
71 -77 -81 -231 0
-29 80 85 -100 0
10 38 65 -100 0
-10 17 -23 54 0
11 -15 -77 -87 0
-12 43 46 232 0
46 -53 59 -232 0
-3 62 76 77 0
-16 25 -28 233 0
-28 -52 -233 234 0
-52 -56 -234 235 0
-56 84 -235 236 0
84 85 -236 237 0
85 -92 -97 -237 0
-12 39 41 238 0
41 58 -238 239 0
58 -71 -239 240 0
-71 78 -79 -240 0
24 -34 50 241 0
50 -61 -241 242 0
-61 -93 -99 -242 0
-3 -33 78 243 0
78 85 -86 -243 0
-10 -14 -18 244 0
-18 28 -244 245 0
28 -47 -245 246 0
-47 -67 -246 247 0
-67 72 -247 248 0
72 -79 -248 249 0
-79 -94 -98 -249 0
-28 30 70 -96 0
-1 14 81 250 0
81 88 -99 -250 0
10 -15 22 251 0
22 23 -251 252 0
23 58 -252 253 0
58 -71 -98 -253 0
12 13 29 254 0
29 33 -254 255 0
33 -39 -63 -255 0
5 8 10 256 0
10 -24 -256 257 0
-24 -41 -257 258 0
-41 67 -258 259 0
67 -77 -259 260 0
-77 97 99 -260 0
-4 -10 92 261 0
-4 -10 92 -261 0
21 -40 -81 262 0
21 -40 -81 -262 0
16 -29 -39 263 0
-39 -50 -263 264 0
-50 93 -264 265 0
93 94 -100 -265 0
3 9 52 90 0
-18 -25 52 266 0
52 -73 81 -266 0
9 -22 -45 267 0
-45 -64 77 -267 0
7 8 -19 268 0
7 8 -19 -268 0
20 -21 -32 269 0
-32 -47 -269 270 0
-47 -50 -270 271 0
-50 -71 -83 -271 0
-9 -14 20 272 0
20 21 -272 273 0
21 49 -273 274 0
49 81 -274 275 0
81 -86 93 -275 0
29 -58 61 276 0
61 -70 -73 -276 0
-18 23 52 277 0
52 -67 71 -277 0
5 -27 36 278 0
36 -37 -40 -278 0
-42 52 279 280 0
-42 52 279 -280 0
-42 52 -279 280 0
-42 52 -279 -280 0
5 13 -21 281 0
-21 -28 -67 -281 0
-1 4 -5 282 0
-5 39 -282 283 0
39 51 -283 284 0
51 75 -284 285 0
75 -76 -285 286 0
-76 93 94 -286 0
-5 21 39 287 0
39 -45 -287 288 0
-45 -89 93 -288 0
24 -46 -50 -62 0
16 40 289 290 0
16 40 289 -290 0
16 40 -289 290 0
16 40 -289 -290 0
23 86 -99 291 0
23 86 -99 -291 0
3 51 -82 -91 0
33 -95 -97 292 0
33 -95 -97 -292 0
9 -20 59 293 0
59 60 -293 294 0
60 -69 -294 295 0
-69 -92 -98 -295 0
29 53 70 296 0
70 80 -296 297 0
80 81 -297 298 0
81 -84 -94 -298 0
23 -62 65 299 0
65 -71 74 -299 0
20 29 -67 83 0
73 -80 89 -96 0
15 -23 -40 58 0
-12 49 -53 300 0
-53 -75 -300 301 0
-75 78 -301 302 0
78 84 -302 303 0
84 -91 -94 -303 0
-27 30 -42 304 0
-42 55 -304 305 0
55 -60 -305 306 0
-60 -76 -306 307 0
-76 79 -82 -307 0
14 26 -48 308 0
-48 -57 -308 309 0
-57 68 -309 310 0
68 -69 -87 -310 0
6 -34 36 75 0
24 79 311 312 0
24 79 311 -312 0
24 79 -311 312 0
24 79 -311 -312 0
-14 -43 -69 313 0
-14 -43 -69 -313 0
-62 77 314 315 0
-62 77 314 -315 0
-62 77 -314 315 0
-62 77 -314 -315 0
-7 36 -42 -84 0
2 29 -33 316 0
-33 -52 -316 317 0
-52 -61 -317 318 0
-61 81 -95 -318 0
-29 37 -75 319 0
-75 -89 95 -319 0
-23 36 61 320 0
-23 36 61 -320 0
5 -11 -21 28 0
36 46 -74 90 0
53 -54 -76 100 0
-15 -66 -77 -82 0
4 56 -69 -84 0
9 14 30 321 0
30 32 -321 322 0
32 -40 -322 323 0
-40 -58 -323 324 0
-58 61 -324 325 0
61 -71 86 -325 0
11 16 31 326 0
31 -68 -326 327 0
-68 -80 -86 -327 0
29 -49 63 328 0
63 -65 -85 -328 0
71 -72 84 329 0
71 -72 84 -329 0
4 -6 -10 330 0
-10 37 -330 331 0
37 53 -331 332 0
53 55 -332 333 0
55 -77 -333 334 0
-77 80 82 -334 0
11 60 -65 93 0
-3 -38 -77 335 0
-77 81 -98 -335 0
-23 -35 55 -65 0
18 -54 -63 69 0
-6 -15 -22 336 0
-22 26 -336 337 0
26 -39 -337 338 0
-39 63 65 -338 0
-5 8 -23 339 0
-23 73 86 -339 0
-48 -77 -88 340 0
-48 -77 -88 -340 0
19 -24 27 341 0
27 -66 -98 -341 0
-9 -35 -46 342 0
-46 57 -99 -342 0
-45 50 -63 343 0
-63 81 -343 344 0
81 -91 -344 345 0
-91 95 -345 346 0
95 98 -100 -346 0
28 84 89 96 0
3 21 28 347 0
28 29 90 -347 0
-23 26 -39 348 0
-39 -56 -93 -348 0
-18 72 80 349 0
80 83 90 -349 0
2 -13 35 350 0
35 54 -350 351 0
54 -60 -351 352 0
-60 -77 -79 -352 0
63 -80 -85 88 0
-13 28 -53 353 0
-53 71 -353 354 0
71 74 -354 355 0
74 80 -96 -355 0
13 24 -58 -87 0
29 -43 78 -80 0
17 26 66 356 0
66 87 88 -356 0
27 68 83 95 0
-16 82 -85 357 0
-16 82 -85 -357 0
-11 -15 358 359 0
-11 -15 358 -359 0
-11 -15 -358 359 0
-11 -15 -358 -359 0
19 50 -67 360 0
19 50 -67 -360 0
-1 23 -46 361 0
-46 -50 -62 -361 0
-41 43 -44 362 0
-44 54 -362 363 0
54 -58 -363 364 0
-58 -61 65 -364 0
3 -14 -25 365 0
-25 64 -365 366 0
64 88 -366 367 0
88 91 -367 368 0
91 94 -97 -368 0
4 22 -27 369 0
4 22 -27 -369 0
-31 36 40 370 0
40 -52 -370 371 0
-52 54 58 -371 0
12 -37 59 372 0
59 63 -372 373 0
63 75 -92 -373 0
5 15 -24 374 0
-24 -76 -95 -374 0
1 5 -8 -56 0
5 -20 31 375 0
31 37 -375 376 0
37 40 -376 377 0
40 42 -377 378 0
42 -56 -72 -378 0
-10 -34 -39 -52 0
16 21 -24 379 0
-24 -37 -379 380 0
-37 -79 -380 381 0
-79 -84 -91 -381 0
5 -7 -10 382 0
-10 -31 -54 -382 0
62 86 -96 383 0
62 86 -96 -383 0
36 37 -52 384 0
-52 90 98 -384 0
4 -13 34 50 0
-7 11 13 385 0
13 -16 24 -385 0
5 11 -48 95 0
-37 -41 -45 386 0
-45 72 -96 -386 0
9 -74 -84 387 0
-84 95 96 -387 0
26 -31 -48 388 0
-48 55 -388 389 0
55 60 -389 390 0
60 -65 -390 391 0
-65 75 -96 -391 0
12 -14 -19 392 0
-19 23 -392 393 0
23 29 -393 394 0
29 40 -394 395 0
40 49 92 -395 0
-1 -14 18 396 0
18 30 -396 397 0
30 -33 -397 398 0
-33 39 -398 399 0
39 -45 65 -399 0
66 83 400 401 0
66 83 400 -401 0
66 83 -400 401 0
66 83 -400 -401 0
-51 -71 -74 -90 0
-38 -68 -77 -97 0
-11 -15 56 402 0
56 67 -402 403 0
67 -68 -403 404 0
-68 -78 -404 405 0
-78 -81 -405 406 0
-81 84 -406 407 0
84 -92 -94 -407 0
-4 17 -51 408 0
-51 66 88 -408 0
21 49 -59 409 0
-59 -67 -72 -409 0
-42 -95 -97 410 0
-42 -95 -97 -410 0
-6 -9 -34 47 0
10 -50 54 411 0
10 -50 54 -411 0
23 46 51 412 0
23 46 51 -412 0
4 -58 -98 413 0
4 -58 -98 -413 0
4 -18 -33 38 0
28 70 414 415 0
28 70 414 -415 0
28 70 -414 415 0
28 70 -414 -415 0
-5 22 416 417 0
-5 22 416 -417 0
-5 22 -416 417 0
-5 22 -416 -417 0
22 -28 50 418 0
50 51 -418 419 0
51 -63 -93 -419 0
-14 18 -33 420 0
-33 47 -420 421 0
47 50 -421 422 0
50 52 84 -422 0
-16 36 56 423 0
56 59 -423 424 0
59 60 -424 425 0
60 -92 94 -425 0
10 -24 46 426 0
10 -24 46 -426 0
-1 33 44 -90 0
-17 -49 52 427 0
-17 -49 52 -427 0
12 13 65 428 0
12 13 65 -428 0
22 41 43 429 0
43 45 -429 430 0
45 80 -430 431 0
80 -89 92 -431 0
39 44 -86 432 0
39 44 -86 -432 0
-17 -30 -40 433 0
-17 -30 -40 -433 0
11 68 -77 -89 0
5 -41 100 434 0
5 -41 100 -434 0
14 15 -50 435 0
-50 59 -435 436 0
59 69 -99 -436 0
2 -7 -26 437 0
-26 28 -437 438 0
28 33 -438 439 0
33 -39 95 -439 0
36 -38 -71 -91 0
18 20 -35 440 0
-35 37 73 -440 0
-43 -65 -75 441 0
-43 -65 -75 -441 0
-38 -61 -76 442 0
-38 -61 -76 -442 0
-20 -33 55 94 0
-11 21 -52 443 0
-52 -54 -443 444 0
-54 -77 -444 445 0
-77 79 -80 -445 0
6 -18 -22 446 0
-22 58 -446 447 0
58 96 -97 -447 0
-39 70 97 448 0
-39 70 97 -448 0
3 6 35 449 0
35 91 -94 -449 0
81 92 450 451 0
81 92 450 -451 0
81 92 -450 451 0
81 92 -450 -451 0
60 -74 78 452 0
78 -89 -94 -452 0
-16 20 22 453 0
22 43 -453 454 0
43 -50 -454 455 0
-50 -59 -455 456 0
-59 -76 -81 -456 0
28 43 99 100 0
-9 -34 45 457 0
45 46 -457 458 0
46 -61 -458 459 0
-61 -64 91 -459 0
23 26 48 460 0
48 -63 -72 -460 0
23 -44 56 -57 0
9 -15 -27 461 0
-27 -48 -461 462 0
-48 50 -462 463 0
50 51 -463 464 0
51 -53 -464 465 0
-53 55 -465 466 0
55 56 -466 467 0
56 -58 -63 -467 0
-1 22 -43 468 0
-1 22 -43 -468 0
14 29 -52 469 0
-52 -61 -469 470 0
-61 73 84 -470 0
-36 -86 94 95 0
1 -29 47 471 0
47 -65 100 -471 0
22 39 -79 84 0
4 18 -33 472 0
-33 -49 -472 473 0
-49 -57 85 -473 0
33 -37 -76 82 0
23 37 -48 474 0
-48 59 -98 -474 0
25 -71 -76 475 0
25 -71 -76 -475 0
6 13 22 476 0
22 24 -476 477 0
24 29 -477 478 0
29 40 -478 479 0
40 -54 -479 480 0
-54 -57 -480 481 0
-57 67 93 -481 0
-25 33 42 482 0
-25 33 42 -482 0
-4 9 -29 483 0
-29 -60 -483 484 0
-60 -69 -484 485 0
-69 80 -485 486 0
80 81 -486 487 0
81 88 -98 -487 0
-20 -52 71 488 0
71 -76 87 -488 0
-4 29 -46 489 0
-46 87 91 -489 0
27 -60 -73 92 0
-2 5 23 490 0
23 -25 -490 491 0
-25 -75 94 -491 0
10 72 82 96 0
-23 -61 81 492 0
-23 -61 81 -492 0
43 44 -49 493 0
-49 -63 -493 494 0
-63 71 -73 -494 0
27 55 495 496 0
27 55 495 -496 0
27 55 -495 496 0
27 55 -495 -496 0
-5 9 -31 497 0
-31 35 -497 498 0
35 -67 78 -498 0
-27 50 -65 499 0
-65 -70 -499 500 0
-70 -74 -500 501 0
-74 87 92 -501 0
-28 52 -59 502 0
-28 52 -59 -502 0
25 -28 35 503 0
35 70 -503 504 0
70 -80 -91 -504 0
69 71 89 505 0
69 71 89 -505 0
-24 30 55 -86 0
44 94 97 506 0
44 94 97 -506 0
-80 83 -93 507 0
-80 83 -93 -507 0
2 9 -14 508 0
-14 67 -508 509 0
67 68 99 -509 0
-26 66 72 87 0
-25 28 -49 -66 0
-39 58 63 510 0
63 72 -84 -510 0
-9 -35 46 511 0
46 48 -511 512 0
48 -69 -512 513 0
-69 -71 -513 514 0
-71 80 -514 515 0
80 -86 -90 -515 0
-9 -38 89 94 0
19 47 74 516 0
19 47 74 -516 0
-19 26 -32 63 0
20 -24 -86 -96 0
-21 52 55 517 0
55 -62 68 -517 0
-1 -6 -12 518 0
-12 71 -518 519 0
71 85 86 -519 0
-25 34 -37 520 0
-37 -61 -520 521 0
-61 -65 -521 522 0
-65 93 94 -522 0
-2 -8 -21 523 0
-21 48 -523 524 0
48 50 -524 525 0
50 67 -525 526 0
67 -80 -526 527 0
-80 87 -88 -527 0
33 -43 59 -70 0
-3 -7 -12 528 0
-12 -42 -528 529 0
-42 87 -529 530 0
87 94 -95 -530 0
-5 -19 -23 531 0
-23 -27 -531 532 0
-27 37 -532 533 0
37 -56 -533 534 0
-56 -76 -534 535 0
-76 81 -88 -535 0
-8 -37 39 79 0
-7 -10 23 536 0
23 90 97 -536 0
19 -24 31 537 0
31 32 -537 538 0
32 67 -80 -538 0
6 8 21 539 0
21 22 -539 540 0
22 38 -540 541 0
38 42 -541 542 0
42 -48 -72 -542 0
1 14 17 543 0
17 19 -543 544 0
19 -33 -544 545 0
-33 -50 -545 546 0
-50 76 -86 -546 0
-13 -19 547 548 0
-13 -19 547 -548 0
-13 -19 -547 548 0
-13 -19 -547 -548 0
2 3 -9 549 0
-9 30 -549 550 0
30 -49 -90 -550 0
25 -38 -48 -59 0
12 18 61 99 0
-27 -34 61 551 0
61 -82 90 -551 0
18 -31 -54 552 0
-54 -73 86 -552 0
16 17 -28 553 0
16 17 -28 -553 0
2 29 -30 554 0
-30 -41 -554 555 0
-41 -56 -555 556 0
-56 -59 -556 557 0
-59 -80 -92 -557 0
-18 -23 29 558 0
29 30 -558 559 0
30 58 -559 560 0
58 90 -95 -560 0
38 -67 70 561 0
70 -79 -82 -561 0
-27 32 61 562 0
61 -76 80 -562 0
14 -36 45 563 0
45 -46 -49 -563 0
-51 61 564 565 0
-51 61 564 -565 0
-51 61 -564 565 0
-51 61 -564 -565 0
2 3 14 566 0
14 22 -566 567 0
22 -30 -567 568 0
-30 -37 -76 -568 0
2 -10 13 569 0
13 -14 -569 570 0
-14 48 -570 571 0
48 60 -571 572 0
60 84 -85 -572 0
-14 30 48 573 0
48 -54 -98 -573 0
33 -55 -59 -71 0
-8 25 49 574 0
-8 25 49 -574 0
32 95 575 576 0
32 95 575 -576 0
32 95 -575 576 0
32 95 -575 -576 0
-4 -6 12 577 0
12 60 -577 578 0
60 -91 -100 -578 0
-1 -7 42 579 0
-1 -7 42 -579 0
-3 18 -29 580 0
-29 68 -580 581 0
68 69 -78 -581 0
38 62 79 582 0
79 89 -582 583 0
89 90 -93 -583 0
32 -71 74 584 0
74 -80 83 -584 0
-5 29 38 585 0
38 -76 92 -585 0
82 -89 98 586 0
82 -89 98 -586 0
-3 24 -32 587 0
-32 -49 67 -587 0
-21 58 -62 588 0
-62 -84 -588 589 0
-84 87 -589 590 0
87 93 -100 -590 0
-36 39 -51 591 0
-51 64 -591 592 0
64 -69 -592 593 0
-69 -85 -593 594 0
-85 88 -91 -594 0
23 35 -57 595 0
-57 -66 -595 596 0
-66 77 -596 597 0
77 -78 -96 -597 0
15 -43 45 84 0
33 88 598 599 0
33 88 598 -599 0
33 88 -598 599 0
33 88 -598 -599 0
-23 -52 -78 600 0
-23 -52 -78 -600 0
-71 86 601 602 0
-71 86 601 -602 0
-71 86 -601 602 0
-71 86 -601 -602 0
-4 -16 45 603 0
45 -51 -93 -603 0
4 11 38 604 0
38 -42 -604 605 0
-42 -61 -605 606 0
-61 -70 90 -606 0
-38 46 -84 -98 0
-32 45 70 607 0
-32 45 70 -607 0
14 -20 -30 37 0
9 45 55 608 0
55 -83 99 -608 0
62 -63 -85 609 0
62 -63 -85 -609 0
-24 -75 -86 -91 0
13 65 -78 -93 0
18 23 39 610 0
39 41 -610 611 0
41 -49 -611 612 0
-49 -67 -612 613 0
-67 70 -613 614 0
70 -80 95 -614 0
20 25 40 615 0
40 -77 -615 616 0
-77 -89 -95 -616 0
38 -58 72 617 0
72 -74 -94 -617 0
80 -81 93 618 0
80 -81 93 -618 0
2 13 -15 619 0
-15 -19 -619 620 0
-19 46 -620 621 0
46 62 -621 622 0
62 64 -622 623 0
64 -86 -623 624 0
-86 89 91 -624 0
-7 20 69 -74 0
-12 -47 -86 90 0
-32 -44 64 -74 0
27 -63 -72 78 0
-15 -24 -31 625 0
-31 35 -625 626 0
35 -48 -626 627 0
-48 72 74 -627 0
-14 17 -32 628 0
-32 82 95 -628 0
-7 -57 -86 -97 0
-8 28 -33 629 0
-33 36 -75 -629 0
4 7 -9 630 0
-9 -18 -630 631 0
-18 -44 -631 632 0
-44 -55 66 -632 0
5 -54 59 633 0
59 -72 -633 634 0
-72 90 -100 -634 0
37 93 98 635 0
37 93 98 -635 0
-2 12 30 636 0
30 37 -636 637 0
37 38 99 -637 0
-32 35 -48 -65 0
-27 81 89 638 0
89 92 99 -638 0
11 -22 44 639 0
44 63 -639 640 0
63 -69 -640 641 0
-69 -86 -88 -641 0
72 -89 -94 97 0
-5 -64 642 643 0
-5 -64 642 -643 0
-5 -64 -642 643 0
-5 -64 -642 -643 0
-22 37 -62 644 0
-62 80 -644 645 0
80 83 89 -645 0
22 33 -67 -96 0
38 -52 87 -89 0
4 26 35 646 0
35 75 -646 647 0
75 96 97 -647 0
36 77 92 648 0
36 77 92 -648 0
-25 91 -94 649 0
-25 91 -94 -649 0
-20 -24 650 651 0
-20 -24 650 -651 0
-20 -24 -650 651 0
-20 -24 -650 -651 0
28 59 -76 652 0
28 59 -76 -652 0
-10 32 -55 653 0
-55 -59 -71 -653 0
3 -6 -50 654 0
-50 52 -654 655 0
52 -53 -655 656 0
-53 63 -656 657 0
63 -67 -657 658 0
-67 -70 74 -658 0
12 -23 -34 659 0
-34 73 -659 660 0
73 97 100 -660 0
13 31 -36 661 0
13 31 -36 -661 0
-1 -40 45 662 0
45 49 -662 663 0
49 -61 -663 664 0
-61 63 67 -664 0
-4 21 -46 665 0
-46 68 -665 666 0
68 72 84 -666 0
14 24 -33 -85 0
10 14 -17 -65 0
14 -29 40 667 0
40 46 -667 668 0
46 49 -668 669 0
49 51 -669 670 0
51 -65 -81 -670 0
-19 -43 -48 -61 0
25 30 -33 671 0
-33 -46 -671 672 0
-46 -88 -672 673 0
-88 -93 -100 -673 0
14 -16 -19 674 0
-19 -40 -63 -674 0
-5 52 675 676 0
-5 52 675 -676 0
-5 52 -675 676 0
-5 52 -675 -676 0
7 71 95 677 0
7 71 95 -677 0
45 46 -61 99 0
13 -22 43 59 0
4 -16 20 678 0
20 22 -678 679 0
22 -25 33 -679 0
14 20 -57 680 0
14 20 -57 -680 0
-5 -79 681 682 0
-5 -79 681 -682 0
-5 -79 -681 682 0
-5 -79 -681 -682 0
4 5 -46 683 0
-46 -50 -683 684 0
-50 -54 81 -684 0
-5 18 -83 -93 0
1 35 -40 685 0
-40 -57 -685 686 0
-57 64 -686 687 0
64 69 -687 688 0
69 -74 84 -688 0
21 -23 -28 689 0
-28 32 -689 690 0
32 38 -690 691 0
38 49 58 -691 0
-10 -23 27 692 0
27 39 -692 693 0
39 -42 -693 694 0
-42 48 -694 695 0
48 -54 74 -695 0
75 92 696 697 0
75 92 696 -697 0
75 92 -696 697 0
75 92 -696 -697 0
-6 -60 -80 698 0
-80 -83 -99 -698 0
-1 -3 -47 699 0
-47 -77 -86 -699 0
-20 -24 65 700 0
65 76 -700 701 0
76 -77 -701 702 0
-77 -87 -702 703 0
-87 -90 93 -703 0
-13 26 -60 704 0
-60 75 97 -704 0
-4 -6 30 705 0
30 58 -705 706 0
58 -68 -706 707 0
-68 -76 -81 -707 0
-15 -18 -43 56 0
19 -59 63 708 0
19 -59 63 -708 0
-7 32 55 60 0
13 -67 709 710 0
13 -67 709 -710 0
13 -67 -709 710 0
13 -67 -709 -710 0
13 -27 -42 47 0
37 79 711 712 0
37 79 711 -712 0
37 79 -711 712 0
37 79 -711 -712 0
-2 -14 31 713 0
-2 -14 31 -713 0
31 -37 59 714 0
59 60 -72 -714 0
-1 3 -23 715 0
-23 27 -715 716 0
27 -42 -716 717 0
-42 56 -717 718 0
56 59 -718 719 0
59 61 93 -719 0
-25 45 65 720 0
65 68 69 -720 0
19 -33 55 721 0
19 -33 55 -721 0
-10 42 53 -99 0
-26 -58 61 722 0
-26 -58 61 -722 0
1 21 22 74 0
31 50 52 723 0
52 54 -723 724 0
54 89 -98 -724 0
48 53 -95 725 0
48 53 -95 -725 0
-26 -39 -49 726 0
-26 -39 -49 -726 0
9 20 77 727 0
77 -86 -98 -727 0
-8 14 -50 728 0
-8 14 -50 -728 0
4 23 24 729 0
24 -59 -729 730 0
-59 68 78 -730 0
11 -16 -35 731 0
-35 37 -731 732 0
37 42 -48 -732 0
45 -47 -80 -100 0
27 29 -44 733 0
-44 46 82 -733 0
-52 -74 -84 734 0
-52 -74 -84 -734 0
3 -47 -70 -85 0
-29 -42 64 735 0
-29 -42 64 -735 0
5 -6 -20 736 0
-20 30 -736 737 0
30 -61 -737 738 0
-61 -63 -738 739 0
-63 -86 -739 740 0
-86 88 -89 -740 0
6 15 -27 741 0
-27 -31 67 -741 0
-3 -48 79 742 0
-3 -48 79 -742 0
1 12 15 743 0
15 44 100 -743 0
-3 90 744 745 0
-3 90 744 -745 0
-3 90 -744 745 0
-3 90 -744 -745 0
69 -83 87 -98 0
8 9 -25 746 0
-25 29 -746 747 0
29 31 -747 748 0
31 52 -748 749 0
52 -59 -749 750 0
-59 -68 -750 751 0
-68 -85 -90 -751 0
37 52 752 753 0
37 52 752 -753 0
37 52 -752 753 0
37 52 -752 -753 0
-18 -43 54 754 0
54 55 -754 755 0
55 -70 -755 756 0
-70 -73 100 -756 0
32 35 57 757 0
57 -72 -81 -757 0
32 -53 65 -66 0
18 -24 -36 758 0
-36 -57 -758 759 0
-57 59 -759 760 0
59 60 -760 761 0
60 -62 -761 762 0
-62 64 -762 763 0
64 65 -763 764 0
65 -67 -72 -764 0
-10 31 -52 765 0
-10 31 -52 -765 0
3 4 23 766 0
23 38 -766 767 0
38 -61 -767 768 0
-61 -70 -768 769 0
-70 82 93 -769 0
9 -45 -95 770 0
9 -45 -95 -770 0
10 -38 56 -74 0
31 48 -88 93 0
13 27 -42 771 0
-42 -58 -771 772 0
-58 -66 94 -772 0
42 -46 -85 91 0
-7 -14 773 774 0
-7 -14 773 -774 0
-7 -14 -773 774 0
-7 -14 -773 -774 0
32 46 -57 68 0
2 34 -80 -85 0
15 22 31 775 0
31 33 -775 776 0
33 38 -776 777 0
38 49 -777 778 0
49 -63 -778 779 0
-63 -66 76 -779 0
-7 -34 42 51 0
-13 18 -38 780 0
-38 -69 -780 781 0
-69 -78 -781 782 0
-78 89 -782 783 0
89 90 97 -783 0
-29 -61 80 784 0
80 -85 96 -784 0
1 -13 38 785 0
38 -55 -785 786 0
-55 96 100 -786 0
3 36 -69 -82 0
5 -11 14 787 0
14 32 -787 788 0
32 -34 -84 -788 0
19 81 91 789 0
19 81 91 -789 0
-32 -70 90 790 0
-32 -70 90 -790 0
52 53 -58 791 0
-58 -72 -791 792 0
-72 80 -82 -792 0
36 64 793 794 0
36 64 793 -794 0
36 64 -793 794 0
36 64 -793 -794 0
1 -14 18 795 0
18 -40 -795 796 0
-40 44 -796 797 0
44 -76 87 -797 0
-36 59 -74 798 0
-74 -79 -798 799 0
-79 -83 96 -799 0
-37 61 -68 800 0
-37 61 -68 -800 0
34 -37 44 801 0
44 79 -801 802 0
79 -89 -100 -802 0
78 80 98 803 0
78 80 98 -803 0
3 6 -33 804 0
-33 39 -804 805 0
39 64 -95 -805 0
-2 53 806 807 0
-2 53 806 -807 0
-2 53 -806 807 0
-2 53 -806 -807 0
8 -89 92 808 0
8 -89 92 -808 0
11 18 -23 809 0
-23 76 77 -809 0
-35 75 81 96 0
-34 37 -58 -75 0
-48 67 72 810 0
72 81 -93 -810 0
3 -18 -44 811 0
-44 55 -811 812 0
55 57 -812 813 0
57 -78 -813 814 0
-78 -80 -814 815 0
-80 89 -815 816 0
89 -95 -99 -816 0
-18 -47 98 817 0
-18 -47 98 -817 0
28 56 83 818 0
28 56 83 -818 0
-5 -28 35 819 0
35 -41 72 -819 0
29 -33 -95 820 0
29 -33 -95 -820 0
-30 61 64 821 0
64 -71 77 -821 0
2 3 -10 822 0
-10 -15 -822 823 0
-15 -21 -823 824 0
-21 80 -824 825 0
80 94 95 -825 0
-34 43 -46 826 0
-46 -70 -74 -826 0
-11 -17 -30 827 0
-30 57 -827 828 0
57 59 -828 829 0
59 76 -829 830 0
76 -89 -830 831 0
-89 96 -97 -831 0
3 -4 42 832 0
42 -52 -832 833 0
-52 68 -79 -833 0
-12 -16 -21 834 0
-21 -51 96 -834 0
-14 -28 -32 835 0
-32 -36 -835 836 0
-36 46 -836 837 0
46 -65 -837 838 0
-65 -85 -838 839 0
-85 90 -97 -839 0
6 -17 -46 840 0
-46 48 88 -840 0
-16 -19 32 99 0
28 -33 40 841 0
40 41 -841 842 0
41 76 -89 -842 0
15 17 30 843 0
30 31 -843 844 0
31 47 -844 845 0
47 51 -845 846 0
51 -57 -81 -846 0
10 23 26 847 0
26 28 -847 848 0
28 -42 -848 849 0
-42 -59 -849 850 0
-59 85 -95 -850 0
-22 -28 851 852 0
-22 -28 851 -852 0
-22 -28 -851 852 0
-22 -28 -851 -852 0
11 12 -18 853 0
-18 39 -853 854 0
39 -58 -99 -854 0
8 34 -47 855 0
-47 -57 -68 -855 0
21 27 70 856 0
21 27 70 -856 0
-36 -43 70 857 0
70 -91 99 -857 0
27 -40 -63 858 0
-63 -82 95 -858 0
-1 25 26 -37 0
-4 11 38 859 0
38 -39 -859 860 0
-39 -50 -860 861 0
-50 -65 -861 862 0
-65 -68 -89 -862 0
-27 -32 38 863 0
38 39 -863 864 0
39 67 99 -864 0
47 -76 79 865 0
79 -88 -91 -865 0
-36 41 70 866 0
70 -85 89 -866 0
23 -45 54 867 0
54 -55 -58 -867 0
-60 70 868 869 0
-60 70 868 -869 0
-60 70 -868 869 0
-60 70 -868 -869 0
11 12 23 870 0
23 31 -870 871 0
31 -39 -871 872 0
-39 -46 -85 -872 0
-7 11 -19 873 0
-19 22 -873 874 0
22 -23 -874 875 0
-23 57 -875 876 0
57 69 -876 877 0
69 93 -94 -877 0
-23 39 57 -63 0
42 -64 -68 -80 0
4 -17 34 58 0
-9 41 878 879 0
-9 41 878 -879 0
-9 41 -878 879 0
-9 41 -878 -879 0
-13 -15 21 880 0
21 69 -100 -880 0
-10 -16 51 881 0
-10 -16 51 -881 0
-2 -12 27 882 0
27 -38 -882 883 0
-38 77 -883 884 0
77 78 -87 -884 0
47 71 88 885 0
88 98 99 -885 0
1 41 -80 886 0
-80 83 -886 887 0
83 -89 92 -887 0
7 -14 38 888 0
38 47 -85 -888 0
91 -98 889 890 0
91 -98 889 -890 0
91 -98 -889 890 0
91 -98 -889 -890 0
2 -9 -12 891 0
-12 33 -891 892 0
33 -41 -892 893 0
-41 -58 76 -893 0
-30 67 -71 894 0
-71 -93 96 -894 0
-5 -45 48 895 0
48 -60 -895 896 0
-60 73 -896 897 0
73 -78 -897 898 0
-78 -94 -898 899 0
-94 97 -100 -899 0
32 44 -66 900 0
-66 -75 -900 901 0
-75 86 -87 -901 0
24 -52 54 93 0
42 97 902 903 0
42 97 902 -903 0
42 97 -902 903 0
42 97 -902 -903 0
-32 -61 -87 904 0
-32 -61 -87 -904 0
-2 -80 95 905 0
-2 -80 95 -905 0
-13 -25 54 -60 0
-7 13 20 906 0
20 47 -906 907 0
47 -51 -907 908 0
-51 -70 -908 909 0
-70 -79 99 -909 0
-47 55 -93 910 0
-47 55 -93 -910 0
-41 54 79 911 0
-41 54 79 -911 0
8 23 -29 912 0
-29 -39 46 -912 0
18 54 64 -92 0
71 -72 -94 913 0
71 -72 -94 -913 0
-33 -84 -95 -100 0
-2 -78 914 915 0
-2 -78 914 -915 0
-2 -78 -914 915 0
-2 -78 -914 -915 0
4 22 74 -87 0
-4 27 32 916 0
32 48 -916 917 0
48 50 -917 918 0
50 -58 -918 919 0
-58 -76 -919 920 0
-76 79 -89 -920 0
29 34 49 921 0
49 -86 -98 -921 0
-3 89 922 923 0
-3 89 922 -923 0
-3 89 -922 923 0
-3 89 -922 -923 0
2 47 -67 924 0
-67 81 -83 -924 0
89 -90 925 926 0
89 -90 925 -926 0
89 -90 -925 926 0
89 -90 -925 -926 0
11 22 -24 927 0
-24 -28 -927 928 0
-28 55 -928 929 0
55 71 -929 930 0
71 73 -930 931 0
73 -95 -931 932 0
-95 98 100 -932 0
-16 29 78 -83 0
-21 -56 -95 99 0
-41 -53 73 -83 0
36 -72 -81 87 0
4 -24 -33 933 0
-33 -40 -933 934 0
-40 44 -934 935 0
44 -57 -935 936 0
-57 81 83 -936 0
-6 -23 26 937 0
26 -41 91 -937 0
-16 -66 -95 938 0
-16 -66 -95 -938 0
-17 37 -42 939 0
-42 45 -84 -939 0
-9 13 16 940 0
16 -18 -940 941 0
-18 -27 -941 942 0
-27 -53 -942 943 0
-53 -64 75 -943 0
2 7 14 944 0
14 -63 -944 945 0
-63 68 -945 946 0
68 -81 99 -946 0
8 46 947 948 0
8 46 947 -948 0
8 46 -947 948 0
8 46 -947 -948 0
-11 21 39 949 0
39 46 47 -949 0
1 8 -41 950 0
-41 44 -950 951 0
44 -57 -74 -951 0
-36 90 98 952 0
-36 90 98 -952 0
-3 6 20 953 0
20 -31 -953 954 0
-31 53 -954 955 0
53 72 -955 956 0
72 -78 -956 957 0
-78 -95 -97 -957 0
81 -98 958 959 0
81 -98 958 -959 0
81 -98 -958 959 0
81 -98 -958 -959 0
-14 -73 960 961 0
-14 -73 960 -961 0
-14 -73 -960 961 0
-14 -73 -960 -961 0
-5 -31 46 962 0
46 -71 -962 963 0
-71 89 -963 964 0
89 92 98 -964 0
31 42 -76 965 0
31 42 -76 -965 0
5 6 47 966 0
47 -61 -966 967 0
-61 96 -98 -967 0
1 13 35 968 0
35 44 84 -968 0
-3 45 86 969 0
-3 45 86 -969 0
-34 100 970 971 0
-34 100 970 -971 0
-34 100 -970 971 0
-34 100 -970 -971 0
-29 -33 972 973 0
-29 -33 972 -973 0
-29 -33 -972 973 0
-29 -33 -972 -973 0
37 68 -85 974 0
37 68 -85 -974 0
-19 41 -64 975 0
-64 -68 -80 -975 0
6 9 12 976 0
12 -15 -976 977 0
-15 -59 -977 978 0
-59 61 -978 979 0
61 -62 -979 980 0
-62 72 -980 981 0
72 -76 -981 982 0
-76 -79 83 -982 0
21 -32 -43 82 0
22 40 -45 983 0
22 40 -45 -983 0
-10 -49 54 984 0
54 58 -984 985 0
58 -70 -985 986 0
-70 72 76 -986 0
-13 30 -55 987 0
-55 77 -987 988 0
77 81 93 -988 0
23 33 -42 -94 0
19 23 -26 -74 0
23 -38 49 989 0
49 55 -989 990 0
55 58 -990 991 0
58 60 -991 992 0
60 -74 -90 -992 0
-2 -9 -28 993 0
-28 -52 -993 994 0
-52 -57 -70 -994 0
34 39 -42 995 0
-42 -55 -97 -995 0
23 -25 -28 996 0
-28 -49 -72 -996 0
4 -14 61 997 0
4 -14 61 -997 0
8 16 80 998 0
8 16 80 -998 0
54 55 -70 999 0
54 55 -70 -999 0
22 -31 52 68 0
13 -25 29 1000 0
29 31 -1000 1001 0
31 -34 42 -1001 0
23 29 -66 1002 0
23 29 -66 -1002 0
-14 -88 1003 1004 0
-14 -88 1003 -1004 0
-14 -88 -1003 1004 0
-14 -88 -1003 -1004 0
-2 13 14 1005 0
14 -55 -1005 1006 0
-55 -59 -1006 1007 0
-59 -63 90 -1007 0
-14 27 -92 1008 0
-14 27 -92 -1008 0
10 44 -49 1009 0
-49 -66 -1009 1010 0
-66 73 -1010 1011 0
73 78 -1011 1012 0
78 -83 93 -1012 0
30 -32 -37 1013 0
-37 41 -1013 1014 0
41 47 -1014 1015 0
47 58 67 -1015 0
1 -19 -32 1016 0
-32 36 -1016 1017 0
36 48 -1017 1018 0
48 -51 -1018 1019 0
-51 57 -1019 1020 0
57 -63 83 -1020 0
-8 84 1021 1022 0
-8 84 1021 -1022 0
-8 84 -1021 1022 0
-8 84 -1021 -1022 0
-15 -69 -89 -92 0
2 -10 -12 1023 0
-12 -56 -1023 1024 0
-56 -86 -95 -1024 0
6 -29 -33 1025 0
-33 74 -1025 1026 0
74 85 -1026 1027 0
85 -86 -1027 1028 0
-86 -96 -99 -1028 0
-22 35 -69 84 0
-13 -15 39 1029 0
39 67 -1029 1030 0
67 -77 -1030 1031 0
-77 -85 -90 -1031 0
-24 -27 -52 65 0
28 -68 72 1032 0
28 -68 72 -1032 0
-16 41 64 69 0
22 -76 1033 1034 0
22 -76 1033 -1034 0
22 -76 -1033 1034 0
22 -76 -1033 -1034 0
22 -36 -51 56 0
46 88 1035 1036 0
46 88 1035 -1036 0
46 88 -1035 1036 0
46 88 -1035 -1036 0
-11 -23 40 1037 0
-11 -23 40 -1037 0
2 40 -46 1038 0
-46 68 -1038 1039 0
68 69 -81 -1039 0
-10 12 -32 1040 0
-32 36 -1040 1041 0
36 -51 -1041 1042 0
-51 65 -1042 1043 0
65 68 70 -1043 0
-34 54 74 1044 0
74 77 78 -1044 0
-8 28 -42 64 0
-19 51 62 1045 0
-19 51 62 -1045 0
-35 -67 70 1046 0
-35 -67 70 -1046 0
-7 10 30 1047 0
30 31 83 -1047 0
-4 40 59 1048 0
59 61 -1048 1049 0
61 63 98 -1049 0
57 62 1050 1051 0
57 62 1050 -1051 0
57 62 -1050 1051 0
57 62 -1050 -1051 0
-7 -35 -48 -58 0
18 29 86 -95 0
-17 23 -59 1052 0
-17 23 -59 -1052 0
13 32 33 1053 0
33 -68 -1053 1054 0
-68 77 87 -1054 0
-9 20 -25 1055 0
-25 -44 -1055 1056 0
-44 46 -1056 1057 0
46 51 -57 -1057 0
54 -56 -89 1058 0
54 -56 -89 -1058 0
36 38 -53 1059 0
-53 55 91 -1059 0
-61 -83 -93 1060 0
-61 -83 -93 -1060 0
12 -56 -79 -94 0
-38 -51 73 1061 0
-38 -51 73 -1061 0
14 -15 -29 1062 0
-29 39 -1062 1063 0
39 -70 -1063 1064 0
-70 -72 -1064 1065 0
-72 -95 -1065 1066 0
-95 97 -98 -1066 0
15 24 -36 1067 0
-36 -40 76 -1067 0
9 -12 -57 88 0
10 21 24 53 0
-7 -12 99 1068 0
-7 -12 99 -1068 0
78 -92 96 1069 0
78 -92 96 -1069 0
17 18 -34 1070 0
-34 38 -1070 1071 0
38 40 -1071 1072 0
40 61 -1072 1073 0
61 -68 -1073 1074 0
-68 -77 -1074 1075 0
-77 -94 -99 -1075 0
9 46 61 1076 0
9 46 61 -1076 0
-27 -52 63 1077 0
63 64 -1077 1078 0
64 -79 -82 -1078 0
41 44 66 1079 0
66 -81 -90 -1079 0
41 -62 74 -75 0
27 -33 -45 1080 0
-45 -66 -1080 1081 0
-66 68 -1081 1082 0
68 69 -1082 1083 0
69 -71 -1083 1084 0
-71 73 -1084 1085 0
73 74 -1085 1086 0
74 -76 -81 -1086 0
-19 40 -61 1087 0
-19 40 -61 -1087 0
2 -20 1088 1089 0
2 -20 1088 -1089 0
2 -20 -1088 1089 0
2 -20 -1088 -1089 0
-4 12 13 1090 0
13 32 -1090 1091 0
32 47 -1091 1092 0
47 -70 -1092 1093 0
-70 -79 91 -1093 0
18 -54 1094 1095 0
18 -54 1094 -1095 0
18 -54 -1094 1095 0
18 -54 -1094 -1095 0
2 19 -47 1096 0
-47 65 -83 -1096 0
3 40 57 -97 0
22 36 -51 1097 0
-51 -67 -75 -1097 0
51 -55 -94 100 0
-16 -23 1098 1099 0
-16 -23 1098 -1099 0
-16 -23 -1098 1099 0
-16 -23 -1098 -1099 0
41 55 -66 77 0
11 43 -89 -94 0
24 31 40 1100 0
40 42 -1100 1101 0
42 47 -1101 1102 0
47 58 -1102 1103 0
58 -72 -1103 1104 0
-72 -75 85 -1104 0
6 -16 -43 1105 0
-43 51 60 -1105 0
5 -22 27 1106 0
27 -47 -1106 1107 0
-47 -78 -1107 1108 0
-78 -87 -1108 1109 0
-87 98 99 -1109 0
5 9 -38 1110 0
-38 -70 -1110 1111 0
-70 89 -94 -1111 0
10 -22 47 -64 0
12 45 -78 -91 0
14 -20 23 1112 0
23 41 -1112 1113 0
41 -43 -93 -1113 0
28 90 100 1114 0
28 90 100 -1114 0
-41 -79 99 1115 0
-41 -79 99 -1115 0
61 62 -67 1116 0
-67 -81 -1116 1117 0
-81 89 -91 -1117 0
3 45 73 1118 0
3 45 73 -1118 0
5 10 -23 1119 0
-23 27 -1119 1120 0
27 -49 -1120 1121 0
-49 53 -1121 1122 0
53 -85 96 -1122 0
-45 68 -83 1123 0
-83 -88 -92 -1123 0
-9 -46 70 -77 0
7 43 -46 1124 0
-46 53 -1124 1125 0
53 88 -98 -1125 0
-4 87 89 1126 0
-4 87 89 -1126 0
12 15 -42 1127 0
-42 48 73 -1127 0
1 -11 62 1128 0
1 -11 62 -1128 0
17 -98 1129 1130 0
17 -98 1129 -1130 0
17 -98 -1129 1130 0
17 -98 -1129 -1130 0
5 20 27 1131 0
27 -32 -1131 1132 0
-32 85 86 -1132 0
-44 84 90 1133 0
-44 84 90 -1133 0
-2 -43 46 1134 0
46 -67 -84 -1134 0
-4 -8 -57 1135 0
-57 76 -1135 1136 0
76 81 90 -1136 0
7 12 -27 1137 0
-27 -53 -1137 1138 0
-53 64 -1138 1139 0
64 66 -1139 1140 0
66 -87 -1140 1141 0
-87 -89 98 -1141 0
-27 -56 1142 1143 0
-27 -56 1142 -1143 0
-27 -56 -1142 1143 0
-27 -56 -1142 -1143 0
37 65 92 1144 0
37 65 92 -1144 0
-4 -14 -37 1145 0
-37 44 -1145 1146 0
44 -50 81 -1146 0
38 -42 1147 1148 0
38 -42 1147 -1148 0
38 -42 -1147 1148 0
38 -42 -1147 -1148 0
3 4 -39 1149 0
-39 70 -1149 1150 0
70 73 -1150 1151 0
73 -80 86 -1151 0
11 12 -19 1152 0
-19 -24 -1152 1153 0
-24 -30 89 -1153 0
5 -6 -43 1154 0
-43 52 -1154 1155 0
52 -55 -1155 1156 0
-55 -79 -83 -1156 0
-20 -26 -39 1157 0
-39 66 -1157 1158 0
66 68 -1158 1159 0
68 85 -98 -1159 0
5 12 -13 1160 0
-13 51 -1160 1161 0
51 -61 -1161 1162 0
-61 77 -88 -1162 0
-6 -21 -25 1163 0
-25 -30 -60 -1163 0
-23 -37 -41 1164 0
-41 -45 -1164 1165 0
-45 55 -1165 1166 0
55 -74 -1166 1167 0
-74 -94 99 -1167 0
8 15 -26 1168 0
-26 -55 -1168 1169 0
-55 57 97 -1169 0
-25 -28 41 1170 0
-25 -28 41 -1170 0
37 -42 49 1171 0
49 50 -1171 1172 0
50 85 -98 -1172 0
-4 24 26 1173 0
26 39 -1173 1174 0
39 40 -1174 1175 0
40 56 -1175 1176 0
56 60 -1176 1177 0
60 -66 -90 -1177 0
19 32 35 1178 0
35 37 -1178 1179 0
37 -51 -1179 1180 0
-51 -68 94 -1180 0
-8 -31 -37 1181 0
-8 -31 -37 -1181 0
20 21 -27 1182 0
-27 48 -67 -1182 0
17 43 -56 1183 0
-56 -66 -77 -1183 0
8 30 36 79 0
4 -45 -52 1184 0
-52 79 -100 -1184 0
36 -49 -72 -91 0
-10 34 35 -46 0
8 -13 20 1185 0
20 47 -1185 1186 0
47 -48 -1186 1187 0
-48 -59 -1187 1188 0
-59 -74 -1188 1189 0
-74 -77 -98 -1189 0
-36 -41 47 1190 0
47 48 76 -1190 0
56 -85 88 1191 0
88 -97 -100 -1191 0
-45 50 79 1192 0
79 -94 98 -1192 0
32 -54 63 1193 0
63 -64 -67 -1193 0
-69 79 1194 1195 0
-69 79 1194 -1195 0
-69 79 -1194 1195 0
-69 79 -1194 -1195 0
2 -3 20 1196 0
20 21 -1196 1197 0
21 32 -1197 1198 0
32 40 -1198 1199 0
40 -48 -1199 1200 0
-48 -55 -94 -1200 0
-16 20 -28 1201 0
-28 31 -1201 1202 0
31 -32 -1202 1203 0
-32 66 78 -1203 0
-32 48 66 -72 0
51 -73 -77 -89 0
13 -26 43 67 0
-9 -18 50 1204 0
-9 -18 50 -1204 0
-22 -24 30 78 0
-19 -25 60 1205 0
-19 -25 60 -1205 0
7 8 -11 1206 0
-11 -21 -1206 1207 0
-21 36 -1207 1208 0
36 -47 -1208 1209 0
-47 86 -1209 1210 0
86 87 -96 -1210 0
1 56 80 97 0
10 50 -89 1211 0
-89 92 -98 -1211 0
-7 16 -23 1212 0
-23 47 -1212 1213 0
47 56 -94 -1213 0
-2 5 11 1214 0
11 -18 -1214 1215 0
-18 -21 -1215 1216 0
-21 42 -1216 1217 0
42 -50 -1217 1218 0
-50 -67 85 -1218 0
-3 6 -9 1219 0
-9 -39 -1219 1220 0
-39 76 -80 -1220 0
-14 -54 57 1221 0
57 -69 -1221 1222 0
-69 82 -87 -1222 0
2 41 53 1223 0
53 -75 -1223 1224 0
-75 -84 -1224 1225 0
-84 95 -96 -1225 0
6 33 -61 63 0
4 -41 -70 -96 0
-11 -89 1226 1227 0
-11 -89 1226 -1227 0
-11 -89 -1226 1227 0
-11 -89 -1226 -1227 0
8 -22 -34 1228 0
-34 63 -69 -1228 0
-2 -16 22 1229 0
22 29 -1229 1230 0
29 56 -1230 1231 0
56 -60 -1231 1232 0
-60 -79 -88 -1232 0
-56 64 1233 1234 0
-56 64 1233 -1234 0
-56 64 -1233 1234 0
-56 64 -1233 -1234 0
-50 63 88 1235 0
-50 63 88 -1235 0
-1 17 32 1236 0
32 -38 -1236 1237 0
-38 -48 55 -1237 0
-3 27 63 73 0
-4 -9 80 -81 0
-42 -93 1238 1239 0
-42 -93 1238 -1239 0
-42 -93 -1238 1239 0
-42 -93 -1238 -1239 0
-11 -87 1240 1241 0
-11 -87 1240 -1241 0
-11 -87 -1240 1241 0
-11 -87 -1240 -1241 0
13 31 83 -96 0
-7 -13 36 1242 0
36 41 -1242 1243 0
41 57 -1243 1244 0
57 59 -1244 1245 0
59 -67 -1245 1246 0
-67 -85 -1246 1247 0
-85 88 -98 -1247 0
38 43 58 -95 0
-12 98 1248 1249 0
-12 98 1248 -1249 0
-12 98 -1248 1249 0
-12 98 -1248 -1249 0
11 56 -76 1250 0
-76 90 -92 -1250 0
98 -99 1251 1252 0
98 -99 1251 -1252 0
98 -99 -1251 1252 0
98 -99 -1251 -1252 0
-4 7 9 -30 0
20 31 -33 1253 0
-33 -37 -1253 1254 0
-37 64 -1254 1255 0
64 80 82 -1255 0
-4 8 -25 1256 0
-25 38 -1256 1257 0
38 87 -92 -1257 0
-30 -65 1258 1259 0
-30 -65 1258 -1259 0
-30 -65 -1258 1259 0
-30 -65 -1258 -1259 0
-50 -62 82 -92 0
45 -81 -90 96 0
13 -33 -42 1260 0
-42 -49 -1260 1261 0
-49 53 -1261 1262 0
53 -66 -1262 1263 0
-66 90 92 -1263 0
-4 -15 -32 1264 0
-32 35 -1264 1265 0
35 -50 100 -1265 0
-25 -75 1266 1267 0
-25 -75 1266 -1267 0
-25 -75 -1266 1267 0
-25 -75 -1266 -1267 0
-26 46 -51 1268 0
-51 54 -93 -1268 0
8 -18 22 1269 0
22 25 -1269 1270 0
25 -27 -1270 1271 0
-27 -36 -1271 1272 0
-36 -62 -1272 1273 0
-62 -73 84 -1273 0
11 16 23 1274 0
23 -72 -1274 1275 0
-72 77 -90 -1275 0
17 55 1276 1277 0
17 55 1276 -1277 0
17 55 -1276 1277 0
17 55 -1276 -1277 0
-20 30 48 1278 0
48 55 56 -1278 0
7 10 17 1279 0
17 -50 -1279 1280 0
-50 53 -1280 1281 0
53 -66 -83 -1281 0
-4 -6 -45 99 0
-7 -12 15 1282 0
15 29 -1282 1283 0
29 -40 -1283 1284 0
-40 62 -1284 1285 0
62 81 -87 -1285 0
1 7 -23 -82 0
-14 -40 55 1286 0
55 -80 98 -1286 0
5 -7 40 1287 0
40 51 -85 -1287 0
14 15 56 -70 0
10 22 44 1288 0
44 53 93 -1288 0
9 -12 54 95 0
-38 -42 1289 1290 0
-38 -42 1289 -1290 0
-38 -42 -1289 1290 0
-38 -42 -1289 -1290 0
46 77 -94 1291 0
46 77 -94 -1291 0
-28 50 -73 1292 0
-73 -77 -89 -1292 0
15 18 21 1293 0
21 -24 -1293 1294 0
-24 -68 -1294 1295 0
-68 70 -1295 1296 0
70 -71 -1296 1297 0
-71 81 -1297 1298 0
81 -85 -1298 1299 0
-85 -88 92 -1299 0
30 -41 -52 91 0
31 49 -54 1300 0
31 49 -54 -1300 0
2 -19 -58 1301 0
-58 63 -1301 1302 0
63 67 -1302 1303 0
67 -79 -1303 1304 0
-79 81 85 -1304 0
-3 -22 39 1305 0
39 -64 -1305 1306 0
-64 86 90 -1306 0
32 42 -51 1307 0
32 42 -51 -1307 0
28 32 -35 -83 0
32 -47 58 1308 0
58 64 -1308 1309 0
64 67 -1309 1310 0
67 69 -1310 1311 0
69 -83 -99 -1311 0
-6 -11 -18 1312 0
-18 -37 -1312 1313 0
-37 -61 -1313 1314 0
-61 -66 -79 -1314 0
43 48 -51 -64 0
32 -34 -37 1315 0
-37 -58 -81 -1315 0
13 -23 70 1316 0
13 -23 70 -1316 0
17 25 89 1317 0
17 25 89 -1317 0
63 64 -79 1318 0
63 64 -79 -1318 0
31 -40 61 77 0
22 -34 38 1319 0
38 40 -1319 1320 0
40 -43 51 -1320 0
32 38 -75 1321 0
32 38 -75 -1321 0
-23 -97 1322 1323 0
-23 -97 1322 -1323 0
-23 -97 -1322 1323 0
-23 -97 -1322 -1323 0
-1 -11 22 1324 0
22 23 -1324 1325 0
23 -64 -1325 1326 0
-64 -68 -1326 1327 0
-68 -72 99 -1327 0
2 -23 36 1328 0
2 -23 36 -1328 0
19 53 -58 1329 0
-58 -75 -1329 1330 0
-75 82 -1330 1331 0
82 87 -92 -1331 0
39 -41 -46 1332 0
-46 50 -1332 1333 0
50 56 -1333 1334 0
56 67 76 -1334 0
10 -28 -41 1335 0
-41 45 -1335 1336 0
45 57 -1336 1337 0
57 -60 -1337 1338 0
-60 66 -1338 1339 0
66 -72 92 -1339 0
-1 -17 93 1340 0
-1 -17 93 -1340 0
-4 -24 -78 -98 0
-5 -8 11 1341 0
11 -19 -1341 1342 0
-19 -21 -1342 1343 0
-21 -65 -95 -1343 0
15 -38 -42 1344 0
-42 83 -1344 1345 0
83 94 -95 -1345 0
-31 44 -78 93 0
-22 -24 48 1346 0
48 76 -1346 1347 0
76 -86 -1347 1348 0
-86 -94 -99 -1348 0
-33 -36 -61 74 0
37 -77 81 1349 0
37 -77 81 -1349 0
-25 50 73 78 0
31 -85 1350 1351 0
31 -85 1350 -1351 0
31 -85 -1350 1351 0
31 -85 -1350 -1351 0
31 -45 -60 65 0
55 97 1352 1353 0
55 97 1352 -1353 0
55 97 -1352 1353 0
55 97 -1352 -1353 0
-20 -32 49 1354 0
-20 -32 49 -1354 0
11 49 -55 1355 0
-55 77 -1355 1356 0
77 78 -90 -1356 0
-19 21 -41 1357 0
-41 45 -1357 1358 0
45 -60 -1358 1359 0
-60 74 -1359 1360 0
74 77 79 -1360 0
-43 63 83 1361 0
83 86 87 -1361 0
-17 37 -51 73 0
-28 60 71 1362 0
-28 60 71 -1362 0
-44 -76 79 1363 0
-44 -76 79 -1363 0
7 -16 19 1364 0
19 39 -1364 1365 0
39 40 92 -1365 0
-13 49 68 1366 0
68 70 72 -1366 0
66 71 1367 1368 0
66 71 1367 -1368 0
66 71 -1367 1368 0
66 71 -1367 -1368 0
-4 -16 -44 1369 0
-44 -57 -67 -1369 0
27 38 95 1370 0
27 38 95 -1370 0
-26 32 -68 1371 0
-26 32 -68 -1371 0
22 41 42 1372 0
42 -77 -1372 1373 0
-77 86 96 -1373 0
-18 29 -34 1374 0
-34 -53 -1374 1375 0
-53 55 -1375 1376 0
55 60 -66 -1376 0
